# Solution for model runway_allocation
# Objective value = 16812.4067
x0_0_0 1
x0_0_60 0
x0_0_120 0
x0_0_180 0
x0_0_240 0
x0_0_300 0
x0_0_360 0
x0_0_420 0
x0_0_480 0
x0_0_540 0
x0_1_0 0
x0_1_60 0
x0_1_120 0
x0_1_180 0
x0_1_240 0
x0_1_300 0
x0_1_360 0
x0_1_420 0
x0_1_480 0
x0_1_540 0
x0_2_0 0
x0_2_60 0
x0_2_120 0
x0_2_180 0
x0_2_240 0
x0_2_300 0
x0_2_360 0
x0_2_420 0
x0_2_480 0
x0_2_540 0
x1_0_0 1
x1_0_60 0
x1_0_120 0
x1_0_180 0
x1_0_240 0
x1_0_300 0
x1_0_360 0
x1_0_420 0
x1_0_480 0
x1_0_540 0
x1_1_0 0
x1_1_60 0
x1_1_120 0
x1_1_180 0
x1_1_240 0
x1_1_300 0
x1_1_360 0
x1_1_420 0
x1_1_480 0
x1_1_540 0
x1_2_0 0
x1_2_60 0
x1_2_120 0
x1_2_180 0
x1_2_240 0
x1_2_300 0
x1_2_360 0
x1_2_420 0
x1_2_480 0
x1_2_540 0
x2_0_0 0
x2_0_60 1
x2_0_120 0
x2_0_180 0
x2_0_240 0
x2_0_300 0
x2_0_360 0
x2_0_420 0
x2_0_480 0
x2_0_540 0
x2_1_0 0
x2_1_60 0
x2_1_120 0
x2_1_180 0
x2_1_240 0
x2_1_300 0
x2_1_360 0
x2_1_420 0
x2_1_480 0
x2_1_540 0
x2_2_0 0
x2_2_60 0
x2_2_120 0
x2_2_180 0
x2_2_240 0
x2_2_300 0
x2_2_360 0
x2_2_420 0
x2_2_480 0
x2_2_540 0
x3_0_0 0
x3_0_60 0
x3_0_120 0
x3_0_180 0
x3_0_240 0
x3_0_300 0
x3_0_360 0
x3_0_420 0
x3_0_480 0
x3_0_540 0
x3_1_0 1
x3_1_60 0
x3_1_120 0
x3_1_180 0
x3_1_240 0
x3_1_300 0
x3_1_360 0
x3_1_420 0
x3_1_480 0
x3_1_540 0
x3_2_0 0
x3_2_60 0
x3_2_120 0
x3_2_180 0
x3_2_240 0
x3_2_300 0
x3_2_360 0
x3_2_420 0
x3_2_480 0
x3_2_540 0
x4_0_0 0
x4_0_60 0
x4_0_120 0
x4_0_180 0
x4_0_240 0
x4_0_300 0
x4_0_360 0
x4_0_420 0
x4_0_480 0
x4_0_540 0
x4_1_0 0
x4_1_60 1
x4_1_120 0
x4_1_180 0
x4_1_240 0
x4_1_300 0
x4_1_360 0
x4_1_420 0
x4_1_480 0
x4_1_540 0
x4_2_0 0
x4_2_60 0
x4_2_120 0
x4_2_180 0
x4_2_240 0
x4_2_300 0
x4_2_360 0
x4_2_420 0
x4_2_480 0
x4_2_540 0
x5_0_0 1
x5_0_60 0
x5_0_120 0
x5_0_180 0
x5_0_240 0
x5_0_300 0
x5_0_360 0
x5_0_420 0
x5_0_480 0
x5_0_540 0
x5_1_0 0
x5_1_60 0
x5_1_120 0
x5_1_180 0
x5_1_240 0
x5_1_300 0
x5_1_360 0
x5_1_420 0
x5_1_480 0
x5_1_540 0
x5_2_0 0
x5_2_60 0
x5_2_120 0
x5_2_180 0
x5_2_240 0
x5_2_300 0
x5_2_360 0
x5_2_420 0
x5_2_480 0
x5_2_540 0
x6_0_0 0
x6_0_60 0
x6_0_120 0
x6_0_180 0
x6_0_240 0
x6_0_300 0
x6_0_360 0
x6_0_420 0
x6_0_480 0
x6_0_540 0
x6_1_0 0
x6_1_60 0
x6_1_120 0
x6_1_180 0
x6_1_240 0
x6_1_300 0
x6_1_360 0
x6_1_420 0
x6_1_480 0
x6_1_540 0
x6_2_0 1
x6_2_60 0
x6_2_120 0
x6_2_180 0
x6_2_240 0
x6_2_300 0
x6_2_360 0
x6_2_420 0
x6_2_480 0
x6_2_540 0
x7_0_0 0
x7_0_60 1
x7_0_120 0
x7_0_180 0
x7_0_240 0
x7_0_300 0
x7_0_360 0
x7_0_420 0
x7_0_480 0
x7_0_540 0
x7_1_0 0
x7_1_60 0
x7_1_120 0
x7_1_180 0
x7_1_240 0
x7_1_300 0
x7_1_360 0
x7_1_420 0
x7_1_480 0
x7_1_540 0
x7_2_0 0
x7_2_60 0
x7_2_120 0
x7_2_180 0
x7_2_240 0
x7_2_300 0
x7_2_360 0
x7_2_420 0
x7_2_480 0
x7_2_540 0
x8_0_0 1
x8_0_60 0
x8_0_120 0
x8_0_180 0
x8_0_240 0
x8_0_300 0
x8_0_360 0
x8_0_420 0
x8_0_480 0
x8_0_540 0
x8_1_0 0
x8_1_60 0
x8_1_120 0
x8_1_180 0
x8_1_240 0
x8_1_300 0
x8_1_360 0
x8_1_420 0
x8_1_480 0
x8_1_540 0
x8_2_0 0
x8_2_60 0
x8_2_120 0
x8_2_180 0
x8_2_240 0
x8_2_300 0
x8_2_360 0
x8_2_420 0
x8_2_480 0
x8_2_540 0
x9_0_0 0
x9_0_60 0
x9_0_120 0
x9_0_180 0
x9_0_240 0
x9_0_300 0
x9_0_360 0
x9_0_420 0
x9_0_480 0
x9_0_540 0
x9_1_0 1
x9_1_60 0
x9_1_120 0
x9_1_180 0
x9_1_240 0
x9_1_300 0
x9_1_360 0
x9_1_420 0
x9_1_480 0
x9_1_540 0
x9_2_0 0
x9_2_60 0
x9_2_120 0
x9_2_180 0
x9_2_240 0
x9_2_300 0
x9_2_360 0
x9_2_420 0
x9_2_480 0
x9_2_540 0
x10_0_0 1
x10_0_60 0
x10_0_120 0
x10_0_180 0
x10_0_240 0
x10_0_300 0
x10_0_360 0
x10_0_420 0
x10_0_480 0
x10_0_540 0
x10_1_0 0
x10_1_60 0
x10_1_120 0
x10_1_180 0
x10_1_240 0
x10_1_300 0
x10_1_360 0
x10_1_420 0
x10_1_480 0
x10_1_540 0
x10_2_0 0
x10_2_60 0
x10_2_120 0
x10_2_180 0
x10_2_240 0
x10_2_300 0
x10_2_360 0
x10_2_420 0
x10_2_480 0
x10_2_540 0
x11_0_0 0
x11_0_60 0
x11_0_120 0
x11_0_180 0
x11_0_240 0
x11_0_300 0
x11_0_360 0
x11_0_420 0
x11_0_480 0
x11_0_540 0
x11_1_0 0
x11_1_60 1
x11_1_120 0
x11_1_180 0
x11_1_240 0
x11_1_300 0
x11_1_360 0
x11_1_420 0
x11_1_480 0
x11_1_540 0
x11_2_0 0
x11_2_60 0
x11_2_120 0
x11_2_180 0
x11_2_240 0
x11_2_300 0
x11_2_360 0
x11_2_420 0
x11_2_480 0
x11_2_540 0
x12_0_0 0
x12_0_60 0
x12_0_120 0
x12_0_180 0
x12_0_240 0
x12_0_300 0
x12_0_360 0
x12_0_420 0
x12_0_480 0
x12_0_540 0
x12_1_0 0
x12_1_60 0
x12_1_120 0
x12_1_180 0
x12_1_240 0
x12_1_300 0
x12_1_360 0
x12_1_420 0
x12_1_480 0
x12_1_540 0
x12_2_0 1
x12_2_60 0
x12_2_120 0
x12_2_180 0
x12_2_240 0
x12_2_300 0
x12_2_360 0
x12_2_420 0
x12_2_480 0
x12_2_540 0
x13_0_0 0
x13_0_60 0
x13_0_120 0
x13_0_180 0
x13_0_240 0
x13_0_300 0
x13_0_360 0
x13_0_420 0
x13_0_480 0
x13_0_540 0
x13_1_0 1
x13_1_60 0
x13_1_120 0
x13_1_180 0
x13_1_240 0
x13_1_300 0
x13_1_360 0
x13_1_420 0
x13_1_480 0
x13_1_540 0
x13_2_0 0
x13_2_60 0
x13_2_120 0
x13_2_180 0
x13_2_240 0
x13_2_300 0
x13_2_360 0
x13_2_420 0
x13_2_480 0
x13_2_540 0
x14_0_0 1
x14_0_60 0
x14_0_120 0
x14_0_180 0
x14_0_240 0
x14_0_300 0
x14_0_360 0
x14_0_420 0
x14_0_480 0
x14_0_540 0
x14_1_0 0
x14_1_60 0
x14_1_120 0
x14_1_180 0
x14_1_240 0
x14_1_300 0
x14_1_360 0
x14_1_420 0
x14_1_480 0
x14_1_540 0
x14_2_0 0
x14_2_60 0
x14_2_120 0
x14_2_180 0
x14_2_240 0
x14_2_300 0
x14_2_360 0
x14_2_420 0
x14_2_480 0
x14_2_540 0
x15_0_0 0
x15_0_60 0
x15_0_120 0
x15_0_180 0
x15_0_240 0
x15_0_300 0
x15_0_360 0
x15_0_420 0
x15_0_480 0
x15_0_540 0
x15_1_0 1
x15_1_60 0
x15_1_120 0
x15_1_180 0
x15_1_240 0
x15_1_300 0
x15_1_360 0
x15_1_420 0
x15_1_480 0
x15_1_540 0
x15_2_0 0
x15_2_60 0
x15_2_120 0
x15_2_180 0
x15_2_240 0
x15_2_300 0
x15_2_360 0
x15_2_420 0
x15_2_480 0
x15_2_540 0
x16_0_0 1
x16_0_60 0
x16_0_120 0
x16_0_180 0
x16_0_240 0
x16_0_300 0
x16_0_360 0
x16_0_420 0
x16_0_480 0
x16_0_540 0
x16_1_0 0
x16_1_60 0
x16_1_120 0
x16_1_180 0
x16_1_240 0
x16_1_300 0
x16_1_360 0
x16_1_420 0
x16_1_480 0
x16_1_540 0
x16_2_0 0
x16_2_60 0
x16_2_120 0
x16_2_180 0
x16_2_240 0
x16_2_300 0
x16_2_360 0
x16_2_420 0
x16_2_480 0
x16_2_540 0
x17_0_0 0
x17_0_60 0
x17_0_120 0
x17_0_180 0
x17_0_240 0
x17_0_300 0
x17_0_360 0
x17_0_420 0
x17_0_480 0
x17_0_540 0
x17_1_0 0
x17_1_60 0
x17_1_120 0
x17_1_180 0
x17_1_240 0
x17_1_300 0
x17_1_360 0
x17_1_420 0
x17_1_480 0
x17_1_540 0
x17_2_0 1
x17_2_60 0
x17_2_120 0
x17_2_180 0
x17_2_240 0
x17_2_300 0
x17_2_360 0
x17_2_420 0
x17_2_480 0
x17_2_540 0
x18_0_0 0
x18_0_60 1
x18_0_120 0
x18_0_180 0
x18_0_240 0
x18_0_300 0
x18_0_360 0
x18_0_420 0
x18_0_480 0
x18_0_540 0
x18_1_0 0
x18_1_60 0
x18_1_120 0
x18_1_180 0
x18_1_240 0
x18_1_300 0
x18_1_360 0
x18_1_420 0
x18_1_480 0
x18_1_540 0
x18_2_0 0
x18_2_60 0
x18_2_120 0
x18_2_180 0
x18_2_240 0
x18_2_300 0
x18_2_360 0
x18_2_420 0
x18_2_480 0
x18_2_540 0
x19_0_0 1
x19_0_60 0
x19_0_120 0
x19_0_180 0
x19_0_240 0
x19_0_300 0
x19_0_360 0
x19_0_420 0
x19_0_480 0
x19_0_540 0
x19_1_0 0
x19_1_60 0
x19_1_120 0
x19_1_180 0
x19_1_240 0
x19_1_300 0
x19_1_360 0
x19_1_420 0
x19_1_480 0
x19_1_540 0
x19_2_0 0
x19_2_60 0
x19_2_120 0
x19_2_180 0
x19_2_240 0
x19_2_300 0
x19_2_360 0
x19_2_420 0
x19_2_480 0
x19_2_540 0
